NAME : swiss42-C-3-0-b.1505.tour
COMMENT : Length = 1505
COMMENT : Found by LKH-3 [Keld Helsgaun] Tue Jul 30 13:14:05 2024
TYPE : TOUR
DIMENSION : 42
TOUR_SECTION
1
33
21
34
35
39
23
40
25
22
10
9
30
31
29
3
28
4
5
7
2
8
18
32
36
37
38
16
17
15
20
14
6
27
19
13
12
26
11
42
24
41
-1
EOF
